(declare-fun temp5243_1 () (_ BitVec 64))
(declare-fun var139826 () (_ BitVec 64))
(declare-fun var139820 () (_ BitVec 64))
(declare-fun temp5243_2 () (_ BitVec 64))
(declare-fun var75949 () (_ BitVec 64))
(declare-fun k!0 () Bool)
(declare-fun ARGNAME_filter_sizes_NAMEEND_DIM () (_ BitVec 64))
(declare-fun ARGNAME_data_format_NAMEEND_STRFMT () (_ BitVec 64))
(declare-fun temp5243_3 () (_ BitVec 64))
(declare-fun var76022 () (_ BitVec 64))
(declare-fun var76026 () (_ BitVec 64))
(declare-fun temp5243_4 () (_ BitVec 64))
(declare-fun var76027 () (_ BitVec 64))
(declare-fun temp5243_5 () (_ BitVec 64))
(declare-fun temp5243_6 () (_ BitVec 64))
(declare-fun ARGNAME_input_NAMEEND_DIM () (_ BitVec 64))
(declare-fun var76042 () (_ BitVec 64))
(declare-fun temp5243_7 () (_ BitVec 64))
(declare-fun temp5243_8 () (_ BitVec 64))
(declare-fun ARGNAME_out_backprop_NAMEEND_DIM () (_ BitVec 64))
(declare-fun var76103 () (_ BitVec 64))
(declare-fun temp5243_9 () (_ BitVec 64))
(declare-fun temp5243_10 () (_ BitVec 64))
(declare-fun ARGNAME_input_NAMEEND_DIMSIZE
             ()
             (Array (_ BitVec 64) (_ BitVec 64)))
(declare-fun temp5243_11 () (_ BitVec 64))
(declare-fun temp5243_12 () (_ BitVec 64))
(declare-fun temp5243_13 () (_ BitVec 64))
(declare-fun temp5243_14 () (_ BitVec 64))
(declare-fun temp5243_15 () (_ BitVec 64))
(declare-fun temp5243_16 () (_ BitVec 64))
(declare-fun temp5243_17 () (_ BitVec 64))
(declare-fun temp5243_18 () (_ BitVec 64))
(declare-fun temp5243_19 () (_ BitVec 64))
(declare-fun temp5243_20 () (_ BitVec 64))
(declare-fun temp5243_21 () (_ BitVec 64))
(declare-fun temp5243_22 () (_ BitVec 64))
(declare-fun temp5243_23 () (_ BitVec 64))
(declare-fun var76131 () (_ BitVec 64))
(declare-fun temp5243_24 () (_ BitVec 64))
(declare-fun ARGNAME_out_backprop_NAMEEND_DIMSIZE
             ()
             (Array (_ BitVec 64) (_ BitVec 64)))
(declare-fun temp5243_25 () (_ BitVec 64))
(declare-fun temp5243_26 () (_ BitVec 64))
(declare-fun temp5243_27 () (_ BitVec 64))
(declare-fun temp5243_28 () (_ BitVec 64))
(declare-fun temp5243_29 () (_ BitVec 64))
(declare-fun temp5243_30 () (_ BitVec 64))
(declare-fun temp5243_31 () (_ BitVec 64))
(declare-fun temp5243_32 () (_ BitVec 64))
(declare-fun temp5243_33 () (_ BitVec 64))
(declare-fun temp5243_34 () (_ BitVec 64))
(declare-fun temp5243_35 () (_ BitVec 64))
(declare-fun temp5243_36 () (_ BitVec 64))
(declare-fun temp5243_37 () (_ BitVec 64))
(declare-fun var76165 () (_ BitVec 64))
(declare-fun temp5243_38 () (_ BitVec 64))
(declare-fun ARGNAME_input_NAMEEND_NUMELEMENT () (_ BitVec 64))
(declare-fun var76268 () (_ BitVec 64))
(declare-fun temp5243_39 () (_ BitVec 64))
(declare-fun temp5243_40 () (_ BitVec 64))
(declare-fun var341046 () (_ BitVec 64))
(declare-fun temp5243_41 () (_ BitVec 64))
(declare-fun var341064 () (_ BitVec 64))
(declare-fun temp5243_42 () (_ BitVec 64))
(declare-fun temp5243_43 () (_ BitVec 64))
(declare-fun var472118 () (_ BitVec 64))
(declare-fun temp5243_44 () (_ BitVec 64))
(declare-fun var472136 () (_ BitVec 64))
(declare-fun temp5243_45 () (_ BitVec 64))
(declare-fun temp5243_46 () (_ BitVec 64))
(declare-fun var603190 () (_ BitVec 64))
(declare-fun temp5243_47 () (_ BitVec 64))
(declare-fun var603208 () (_ BitVec 64))
(declare-fun temp5243_48 () (_ BitVec 64))
(declare-fun temp5243_50 () (_ BitVec 64))
(declare-fun temp5243_49 () (_ BitVec 64))
(declare-fun temp5243_52 () (_ BitVec 64))
(declare-fun temp5243_51 () (_ BitVec 64))
(declare-fun temp5243_54 () (_ BitVec 64))
(declare-fun temp5243_53 () (_ BitVec 64))
(declare-fun temp5243_56 () (_ BitVec 64))
(declare-fun temp5243_55 () (_ BitVec 64))
(declare-fun temp5243_57 () (_ BitVec 64))
(declare-fun var861259 () (_ BitVec 64))
(declare-fun var861238 () (_ BitVec 64))
(declare-fun var795670 () (_ BitVec 64))
(declare-fun temp5243_58 () (_ BitVec 64))
(declare-fun temp5243_59 () (_ BitVec 64))
(declare-fun var926795 () (_ BitVec 64))
(declare-fun var926774 () (_ BitVec 64))
(declare-fun var795680 () (_ BitVec 64))
(declare-fun temp5243_60 () (_ BitVec 64))
(declare-fun temp5243_62 () (_ BitVec 64))
(declare-fun temp5243_61 () (_ BitVec 64))
(declare-fun temp5243_64 () (_ BitVec 64))
(declare-fun temp5243_63 () (_ BitVec 64))
(declare-fun temp5243_66 () (_ BitVec 64))
(declare-fun temp5243_65 () (_ BitVec 64))
(declare-fun temp5243_67 () (_ BitVec 64))
(declare-fun var1123378 () (_ BitVec 64))
(declare-fun temp5243_68 () (_ BitVec 64))
(declare-fun var1123379 () (_ BitVec 64))
(declare-fun var1123380 () (_ BitVec 64))
(declare-fun var1123376 () (_ BitVec 64))
(declare-fun var730076 () (_ BitVec 64))
(declare-fun temp5243_69 () (_ BitVec 64))
(declare-fun var1188914 () (_ BitVec 64))
(declare-fun temp5243_70 () (_ BitVec 64))
(declare-fun var1188915 () (_ BitVec 64))
(declare-fun var1188916 () (_ BitVec 64))
(declare-fun var1188912 () (_ BitVec 64))
(declare-fun var730083 () (_ BitVec 64))
(declare-fun temp5243_71 () (_ BitVec 64))
(declare-fun var1254450 () (_ BitVec 64))
(declare-fun temp5243_72 () (_ BitVec 64))
(declare-fun var1254451 () (_ BitVec 64))
(declare-fun var1254452 () (_ BitVec 64))
(declare-fun var1254448 () (_ BitVec 64))
(declare-fun var730088 () (_ BitVec 64))
(declare-fun var76450 () (_ BitVec 64))
(declare-fun temp5243_73 () (_ BitVec 64))
(declare-fun temp5243_74 () (_ BitVec 64))
(declare-fun var76511 () (_ BitVec 64))
(declare-fun var76512 () (_ BitVec 64))
(declare-fun temp5243_76 () (_ BitVec 64))
(declare-fun temp5243_75 () (_ BitVec 64))
(declare-fun temp5243_78 () (_ BitVec 64))
(declare-fun temp5243_77 () (_ BitVec 64))
(assert (or (= ARGNAME_data_format_NAMEEND_STRFMT #x0000000000000000)
    (= ARGNAME_data_format_NAMEEND_STRFMT #x0000000000000001)
    (= ARGNAME_data_format_NAMEEND_STRFMT #x0000000000000002)
    (= ARGNAME_data_format_NAMEEND_STRFMT #x0000000000000003)
    (= ARGNAME_data_format_NAMEEND_STRFMT #x0000000000000004)
    (= ARGNAME_data_format_NAMEEND_STRFMT #x0000000000000005)))
(assert (= temp5243_1 #x0000000000000001))
(assert (= var139826
   (ite (= ARGNAME_filter_sizes_NAMEEND_DIM temp5243_1)
        #x0000000000000001
        #x0000000000000000)))
(assert (= var139820 var139826))
(assert (= var75949 var139820))
(assert (= temp5243_2 #x0000000000000001))
(assert (= var75949 temp5243_2))
(assert (= temp5243_3 #x0000000000000000))
(assert (= var76022 temp5243_3))
(assert (= var76026 var76022))
(assert (= temp5243_4 #x0000000000000000))
(assert (= var76027 (ite (= var76026 temp5243_4) #x0000000000000001 #x0000000000000000)))
(assert (= temp5243_5 #x0000000000000001))
(assert (= var76027 temp5243_5))
(assert (= temp5243_6 #x0000000000000005))
(assert (= var76042
   (ite (= ARGNAME_input_NAMEEND_DIM temp5243_6)
        #x0000000000000001
        #x0000000000000000)))
(assert (= temp5243_7 #x0000000000000001))
(assert (= var76042 temp5243_7))
(assert (= temp5243_8 #x0000000000000005))
(assert (= var76103
   (ite (= ARGNAME_out_backprop_NAMEEND_DIM temp5243_8)
        #x0000000000000001
        #x0000000000000000)))
(assert (= temp5243_9 #x0000000000000001))
(assert (= var76103 temp5243_9))
(assert (= temp5243_10 #x0000000000000000))
(assert (= temp5243_11 (select ARGNAME_input_NAMEEND_DIMSIZE temp5243_10)))
(assert (= temp5243_12 #x0000000000000001))
(assert (= temp5243_13 (select ARGNAME_input_NAMEEND_DIMSIZE temp5243_12)))
(assert (= temp5243_14 #x0000000000000002))
(assert (= temp5243_15 (select ARGNAME_input_NAMEEND_DIMSIZE temp5243_14)))
(assert (= temp5243_16 #x0000000000000003))
(assert (= temp5243_17 (select ARGNAME_input_NAMEEND_DIMSIZE temp5243_16)))
(assert (= temp5243_18 #x0000000000000004))
(assert (= temp5243_19 (select ARGNAME_input_NAMEEND_DIMSIZE temp5243_18)))
(assert (= temp5243_20 #x0000000000000005))
(assert (= temp5243_21 (select ARGNAME_input_NAMEEND_DIMSIZE temp5243_20)))
(assert (= temp5243_22 #x0000000000000004))
(assert (= temp5243_23 (select ARGNAME_input_NAMEEND_DIMSIZE temp5243_22)))
(assert (= var76131 temp5243_23))
(assert (= temp5243_24 #x0000000000000000))
(assert (= temp5243_25 (select ARGNAME_out_backprop_NAMEEND_DIMSIZE temp5243_24)))
(assert (= temp5243_26 #x0000000000000001))
(assert (= temp5243_27 (select ARGNAME_out_backprop_NAMEEND_DIMSIZE temp5243_26)))
(assert (= temp5243_28 #x0000000000000002))
(assert (= temp5243_29 (select ARGNAME_out_backprop_NAMEEND_DIMSIZE temp5243_28)))
(assert (= temp5243_30 #x0000000000000003))
(assert (= temp5243_31 (select ARGNAME_out_backprop_NAMEEND_DIMSIZE temp5243_30)))
(assert (= temp5243_32 #x0000000000000004))
(assert (= temp5243_33 (select ARGNAME_out_backprop_NAMEEND_DIMSIZE temp5243_32)))
(assert (= temp5243_34 #x0000000000000005))
(assert (= temp5243_35 (select ARGNAME_out_backprop_NAMEEND_DIMSIZE temp5243_34)))
(assert (= temp5243_36 #x0000000000000004))
(assert (= temp5243_37 (select ARGNAME_out_backprop_NAMEEND_DIMSIZE temp5243_36)))
(assert (= var76165 temp5243_37))
(assert (= temp5243_38 #x0000000000000000))
(assert (= var76268
   (ite (= ARGNAME_input_NAMEEND_NUMELEMENT temp5243_38)
        #x0000000000000001
        #x0000000000000000)))
(assert (= temp5243_39 #x0000000000000000))
(assert (= var76268 temp5243_39))
(assert (= temp5243_40 #x0000000000000001))
(assert (= var341046 temp5243_40))
(assert (= temp5243_41 #x0000000000000001))
(assert (= var341064
   (ite (bvslt var341046 temp5243_41) #x0000000000000001 #x0000000000000000)))
(assert (= temp5243_42 #x0000000000000000))
(assert (= var341064 temp5243_42))
(assert (= temp5243_43 #x0000000000000001))
(assert (= var472118 temp5243_43))
(assert (= temp5243_44 #x0000000000000001))
(assert (= var472136
   (ite (bvslt var472118 temp5243_44) #x0000000000000001 #x0000000000000000)))
(assert (= temp5243_45 #x0000000000000000))
(assert (= var472136 temp5243_45))
(assert (= temp5243_46 #x0000000000000001))
(assert (= var603190 temp5243_46))
(assert (= temp5243_47 #x0000000000000001))
(assert (= var603208
   (ite (bvslt var603190 temp5243_47) #x0000000000000001 #x0000000000000000)))
(assert (= temp5243_48 #x0000000000000000))
(assert (= var603208 temp5243_48))
(assert (= temp5243_50 #x0000000000000000))
(assert (= temp5243_49 temp5243_50))
(assert (= temp5243_52 #x00000000000000ff))
(assert (= temp5243_51 temp5243_52))
(assert (= temp5243_54 #x00000000000000ff))
(assert (= temp5243_53 temp5243_54))
(assert (= temp5243_56 #x00000000000000ff))
(assert (= temp5243_55 temp5243_56))
(assert (= temp5243_57 #x0000000000000000))
(assert (= var861259 temp5243_57))
(assert (= var861238 var861259))
(assert (= var795670 var861238))
(assert (= temp5243_58 #x0000000000000000))
(assert (= var795670 temp5243_58))
(assert (= temp5243_59 #x0000000000000000))
(assert (= var926795 temp5243_59))
(assert (= var926774 var926795))
(assert (= var795680 var926774))
(assert (= temp5243_60 #x0000000000000000))
(assert (= var795680 temp5243_60))
(assert (= temp5243_62 #x0000000000000000))
(assert (= temp5243_61 temp5243_62))
(assert (= temp5243_64 #x0000000000000000))
(assert (= temp5243_63 temp5243_64))
(assert (= temp5243_66 #x0000000000000000))
(assert (= temp5243_65 temp5243_66))
(assert (= temp5243_67 #x0000000000008000))
(assert (= var1123378 temp5243_67))
(assert (= temp5243_68 #x0000000000000001))
(assert (= var1123379
   (ite (bvslt temp5243_65 temp5243_68) #x0000000000000001 #x0000000000000000)))
(assert (= var1123380 (ite (= var1123379 #x0000000000000001) var1123378 temp5243_65)))
(assert (= var1123376 var1123380))
(assert (= var730076 var1123376))
(assert (= temp5243_69 #x0000000000040000))
(assert (= var1188914 temp5243_69))
(assert (= temp5243_70 #x0000000000000001))
(assert (= var1188915
   (ite (bvslt temp5243_63 temp5243_70) #x0000000000000001 #x0000000000000000)))
(assert (= var1188916 (ite (= var1188915 #x0000000000000001) var1188914 temp5243_63)))
(assert (= var1188912 var1188916))
(assert (= var730083 var1188912))
(assert (= temp5243_71 #x0000000000200000))
(assert (= var1254450 temp5243_71))
(assert (= temp5243_72 #x0000000000000001))
(assert (= var1254451
   (ite (bvslt temp5243_61 temp5243_72) #x0000000000000001 #x0000000000000000)))
(assert (= var1254452 (ite (= var1254451 #x0000000000000001) var1254450 temp5243_61)))
(assert (= var1254448 var1254452))
(assert (= var730088 var1254448))
(assert (= var76450 var730088))
(assert (= temp5243_73 #x0000000000000003))
(assert (= temp5243_74 #xffffffffffffffff))
(assert (= var76512 (bvadd var76511 temp5243_74)))
(assert (= temp5243_76 #x0000000000000000))
(assert (= temp5243_75 temp5243_76))
(assert (= temp5243_78 #x0000000000000000))
(assert (= temp5243_77 temp5243_78))
(model-add temp5243_1 () (_ BitVec 64) #x0000000000000001)
(model-add var139826 () (_ BitVec 64) #x0000000000000001)
(model-add var139820 () (_ BitVec 64) #x0000000000000001)
(model-add temp5243_2 () (_ BitVec 64) #x0000000000000001)
(model-add var75949 () (_ BitVec 64) #x0000000000000001)
(model-del k!0)
(model-add ARGNAME_filter_sizes_NAMEEND_DIM
           ()
           (_ BitVec 64)
           (ite k!0 #x0000000000000001 (bvnot #x0000000000000001)))


